100
    1   218   218
    2    95    95
    3   419   419
    4   167   167
    5     5     5
    6   177   177
    7   426   426
    8   321   321
    9    15    15
   10   222   222
   11   464   464
   12   474   474
   13    28    28
   14    22    22
   15   318   318
   16   292   292
   17   260   260
   18   307   307
   19   221   221
   20   163   163
   21   410   410
   22   364   364
   23   458   458
   24   164   164
   25   203   203
   26   220   220
   27    71    71
   28   311   311
   29   267   267
   30     4     4
   31    91    91
   32   197   197
   33   272   272
   34    27    27
   35   307   307
   36   111   111
   37   224   224
   38    59    59
   39    49    49
   40   254   254
   41   164   164
   42   446   446
   43    78    78
   44   272   272
   45   447   447
   46   237   237
   47   257   257
   48   481   481
   49   319   319
   50   446   446
   51   207   207
   52   207   207
   53   401   401
   54   433   433
   55   226   226
   56    76    76
   57    60    60
   58   111   111
   59   446   446
   60   153   153
   61   380   380
   62   398   398
   63   342   342
   64   221   221
   65   246   246
   66   489   489
   67   408   408
   68   256   256
   69   303   303
   70   244   244
   71   376   376
   72    82    82
   73   155   155
   74   350   350
   75   447   447
   76   496   496
   77   179   179
   78   155   155
   79   297   297
   80   276   276
   81     2     2
   82    69    69
   83   420   420
   84   350   350
   85   165   165
   86   114   114
   87   312   312
   88   292   292
   89   182   182
   90   195   195
   91   453   453
   92   136   136
   93    40    40
   94   105   105
   95   472   472
   96   145   145
   97    50    50
   98    45    45
   99   323   323
  100   390   390
12252
